;  time  = {'z3': 600}
;  terms = 64
;  score = 600
;  stdout= {'z3': 'timeout\n'}
(set-logic QF_FP)
(declare-const x0 (_ FloatingPoint 8 24))
(declare-const x1 (_ FloatingPoint 8 24))
(declare-const x2 (_ FloatingPoint 8 24))
(declare-const x3 (_ FloatingPoint 8 24))
(declare-const x4 (_ FloatingPoint 8 24))
(declare-const x5 (_ FloatingPoint 8 24))
(declare-const x6 (_ FloatingPoint 8 24))
(declare-const x7 (_ FloatingPoint 8 24))
(declare-const x8 (_ FloatingPoint 8 24))
(declare-const x9 (_ FloatingPoint 8 24))
(assert (not (fp.isNaN x0)))
(assert (not (fp.isInfinite x0)))
(assert (not (fp.isZero x0)))
(assert (not (fp.isNaN x1)))
(assert (not (fp.isInfinite x1)))
(assert (not (fp.isZero x1)))
(assert (not (fp.isNaN x2)))
(assert (not (fp.isInfinite x2)))
(assert (not (fp.isZero x2)))
(assert (not (fp.isNaN x3)))
(assert (not (fp.isInfinite x3)))
(assert (not (fp.isZero x3)))
(assert (not (fp.isNaN x4)))
(assert (not (fp.isInfinite x4)))
(assert (not (fp.isZero x4)))
(assert (not (fp.isNaN x5)))
(assert (not (fp.isInfinite x5)))
(assert (not (fp.isZero x5)))
(assert (not (fp.isNaN x6)))
(assert (not (fp.isInfinite x6)))
(assert (not (fp.isZero x6)))
(assert (not (fp.isNaN x7)))
(assert (not (fp.isInfinite x7)))
(assert (not (fp.isZero x7)))
(assert (not (fp.isNaN x8)))
(assert (not (fp.isInfinite x8)))
(assert (not (fp.isZero x8)))
(assert (not (fp.isNaN x9)))
(assert (not (fp.isInfinite x9)))
(assert (not (fp.isZero x9)))
(assert (fp.isNegative (fp.sub RNE (fp.div RNE (fp.div RNE (fp.add RNE (fp.sqrt RNE x1) (fp.div RNE x7 x2)) (fp.max (fp.max (fp.roundToIntegral RNE x9) (fp.div RNE x3 x6)) (fp.add RNE (fp.add RNE x8 x2) (fp.abs x7)))) (fp.add RNE (fp.sqrt RNE (fp.sub RNE x9 x1)) (fp.add RNE (fp.sqrt RNE x3) (fp.div RNE x7 x5)))) (fp.div RNE (fp.div RNE (fp.sqrt RNE (fp.abs x8)) (fp.div RNE (fp.div RNE x1 x4) (fp.max (fp.min x5 x0) (fp.div RNE x7 x3)))) (fp.roundToIntegral RNE (fp.sub RNE (fp.sub RNE (fp.roundToIntegral RNE x6) (fp.neg x3)) (fp.max (fp.div RNE x6 x4) (fp.sub RNE x4 x8))))))))(check-sat)